Timesteps: 1
s UNSATISFIABLE
real 0.07
user 0.01
sys 0.00
Timesteps: 2
s UNSATISFIABLE
real 0.15
user 0.02
sys 0.00
Timesteps: 3
s UNSATISFIABLE
real 0.09
user 0.03
sys 0.00
Timesteps: 4
s UNSATISFIABLE
real 0.10
user 0.05
sys 0.00
Timesteps: 5
s UNSATISFIABLE
real 0.23
user 0.13
sys 0.00
Timesteps: 6
s UNSATISFIABLE
real 0.33
user 0.25
sys 0.00
Timesteps: 7
s UNSATISFIABLE
real 0.75
user 0.67
sys 0.01
Timesteps: 8
s UNSATISFIABLE
real 1.34
user 1.24
sys 0.01
Timesteps: 9
s UNSATISFIABLE
real 3.14
user 3.03
sys 0.01
Timesteps: 10
s UNSATISFIABLE
real 4.17
user 4.03
sys 0.01
Timesteps: 11
s UNSATISFIABLE
real 7.25
user 7.09
sys 0.02
Timesteps: 12
s UNSATISFIABLE
real 8.36
user 8.16
sys 0.02
Timesteps: 13
s UNSATISFIABLE
real 7.62
user 7.42
sys 0.03
Timesteps: 14
s UNSATISFIABLE
real 8.31
user 8.10
sys 0.03
Timesteps: 15
s UNSATISFIABLE
real 9.55
user 9.30
sys 0.04
Timesteps: 16
s UNSATISFIABLE
real 9.40
user 9.16
sys 0.03
Timesteps: 17
s UNSATISFIABLE
real 10.59
user 10.32
sys 0.04
Timesteps: 18
s UNSATISFIABLE
real 12.19
user 11.91
sys 0.04
Timesteps: 19
s UNSATISFIABLE
real 15.64
user 15.32
sys 0.05
Timesteps: 20
s UNSATISFIABLE
real 17.98
user 17.65
sys 0.06
Timesteps: 21
s UNSATISFIABLE
real 21.89
user 21.52
sys 0.06
Timesteps: 22
s UNSATISFIABLE
real 24.63
user 24.25
sys 0.06
Timesteps: 23
s UNSATISFIABLE
real 34.30
user 33.88
sys 0.06
Timesteps: 24
s UNSATISFIABLE
real 39.46
user 39.00
sys 0.08
Timesteps: 25
s UNSATISFIABLE
real 58.62
user 58.00
sys 0.11
Timesteps: 26
s UNSATISFIABLE
real 69.36
user 68.67
sys 0.13
Timesteps: 27
s UNSATISFIABLE
real 99.27
user 98.44
sys 0.16
Timesteps: 28
s UNSATISFIABLE
real 141.88
user 140.82
sys 0.21
Timesteps: 29
s UNSATISFIABLE
real 153.71
user 152.65
sys 0.21
Timesteps: 30
s UNSATISFIABLE
real 291.82
user 290.10
sys 0.34
Timesteps: 31
s UNSATISFIABLE
real 445.90
user 443.51
sys 0.46
Timesteps: 32
s UNSATISFIABLE
real 675.15
user 671.22
sys 0.66
Timesteps: 33
s UNSATISFIABLE
real 1016.26
user 1011.31
sys 0.95
Timesteps: 34
